(set-logic QF_SLIA)
(declare-fun var0 () String)
(declare-fun var1 () String)
(declare-fun var2 () String)
(declare-fun var3 () String)
(declare-fun var4 () Int)
(declare-fun var5 () String)
(declare-fun var6 () String)
(declare-fun var7 () Int)
(declare-fun var8 () Int)
(declare-fun var9 () String)
(declare-fun var10 () String)
(declare-fun var11 () Int)
(declare-fun var12 () Int)
(declare-fun var13 () Int)
(declare-fun var14 () Int)
(declare-fun var15 () String)
(declare-fun var16 () Int)
(declare-fun var17 () String)
(declare-fun var18 () String)
(declare-fun var19 () Int)
(declare-fun var20 () String)
(assert (not (str.suffixof (str.replace var0 var1 var2) (str.at var3 var4))))
(assert (< (str.len (str.substr var5 166 125)) (str.indexof (str.substr var6 var7 var8) (str.replace var0 var9 var1) (str.len var10))))
(assert (= (str.substr var9 var11 var12) (str.at var1 var13)))
(assert (<= (str.len var2) (str.len (str.++ var1 var5))))
(assert (str.contains (str.at var10 var14) (str.replace (str.substr var15 var16 117) (str.++ var0 var17) (str.at var18 var19))))
(assert (> (str.len var20) (str.indexof (str.at (str.substr "'\\<|0Vep>vWUW[mKeyIc-PB5DWIk%K7>Q_5hvcw@_%p#yK}}gXzMk#9""C{`YNhx""8ZpKgXTIe~LxGa}]L;i9{zi[GbOjRD]Ap|pH/Nkf6cMeV]`;*_7%B'z(^%nRc=c.tvpL}u_Y|hY}LU&@x*>Lu76OM9_lwMxEs}4EpZ$okRg!9K!od'CKbK)BZ-0&lB)M1koMcF?-xv5sEb&-*k7jc^9DN18Ph?y*tSK;*ryeb5{]aP*l5frfTS]dXzhKhRS]k}!AH4Oh]w]u#B-'.1Ue:1:r2BR+~W('Sf6hf7i+yd-8u7B[b},irbc#IYO<rG#`(#Aj!:.~6t1:36l+|ri9~"",mGWa;F76NC1KsGhvWf<u'Cjzrnk:[bCFY" var11 var8) (str.len var15)) (str.at var18 var7) (str.len var6))))
(assert (= (str.len var20) (str.indexof var15 var6 var16)))
(check-sat)